\ This file has been generated by DOcplex
\ ENCODING=ISO-8859-1
\Problem name: Market Sharing Problem

Minimize
 obj: s_plus_0 + s_plus_1 + s_plus_2 + s_minus_0 + s_minus_1 + s_minus_2
Subject To
 demand_constraint_0: 37 x_0 + 12 x_1 + 72 x_2 + 9 x_3 + 75 x_4 + 5 x_5 + 79 x_6
                      + 64 x_7 + 16 x_8 + x_9 + 76 x_10 + 71 x_11 + 6 x_12
                      + 25 x_13 + 50 x_14 + 20 x_15 + 18 x_16 + 84 x_17
                      + 11 x_18 + 28 x_19 + s_plus_0 - s_minus_0 = 379
 demand_constraint_1: 29 x_0 + 14 x_1 + 50 x_2 + 68 x_3 + 87 x_4 + 87 x_5
                      + 94 x_6 + 96 x_7 + 86 x_8 + 13 x_9 + 9 x_10 + 7 x_11
                      + 63 x_12 + 61 x_13 + 22 x_14 + 57 x_15 + x_16 + 60 x_18
                      + 81 x_19 + s_plus_1 - s_minus_1 = 492
 demand_constraint_2: 8 x_0 + 88 x_1 + 13 x_2 + 47 x_3 + 72 x_4 + 30 x_5
                      + 71 x_6 + 3 x_7 + 70 x_8 + 21 x_9 + 49 x_10 + 57 x_11
                      + 3 x_12 + 68 x_13 + 24 x_14 + 43 x_15 + 76 x_16 + 26 x_17
                      + 52 x_18 + 80 x_19 + s_plus_2 - s_minus_2 = 450

Bounds
 0 <= x_0 <= 1
 0 <= x_1 <= 1
 0 <= x_2 <= 1
 0 <= x_3 <= 1
 0 <= x_4 <= 1
 0 <= x_5 <= 1
 0 <= x_6 <= 1
 0 <= x_7 <= 1
 0 <= x_8 <= 1
 0 <= x_9 <= 1
 0 <= x_10 <= 1
 0 <= x_11 <= 1
 0 <= x_12 <= 1
 0 <= x_13 <= 1
 0 <= x_14 <= 1
 0 <= x_15 <= 1
 0 <= x_16 <= 1
 0 <= x_17 <= 1
 0 <= x_18 <= 1
 0 <= x_19 <= 1
       s_plus_0 <= 759
       s_plus_1 <= 985
       s_plus_2 <= 901
       s_minus_0 <= 759
       s_minus_1 <= 985
       s_minus_2 <= 901

Binaries
 x_0 x_1 x_2 x_3 x_4 x_5 x_6 x_7 x_8 x_9 x_10 x_11 x_12 x_13 x_14 x_15 x_16 x_17
 x_18 x_19

Generals
 s_plus_0 s_plus_1 s_plus_2 s_minus_0 s_minus_1 s_minus_2
End
